maximize
  -b(2) + _1_a(1)_01 + 6 _1_a(2)_01
subject to
  first1: _1_a(1)_01 + 2 _1_a(2)_01 <= 5
  sec1:   1.3 _1_a(2)_01 + b(1)    >= 4
  sec2:   4 _1_a(1)_01 - b(2) - 2 _1_a(2)_01    >= 6
bounds
  0 <= _1_a(1)_01 <= 10
  0 <= _1_a(2)_01 <=  3
  0 <= b(1) <= 10
  0 <= b(2) <= 20
Generals
 b(1) b(2)
end
